FourierSAT_Github_AIJ/benchmarks/MAXSAT_benchmarks/3/bipartite/maxcut-140-630-0.7/maxcut-140-630-0.7-14.cnf
c strEdges: 189  randomEdges: 441 
c degrees:  2  3 
c girth: 10 max: 8.032766  
c Hgirth mixed MAXCUT instance
c generated from an undirected graph
c to solve unweighted MaxCut
p cnf 140 1260
114 9 0
-114 -9 0
114 3 0
-114 -3 0
24 54 0
-24 -54 0
24 39 0
-24 -39 0
24 36 0
-24 -36 0
69 90 0
-69 -90 0
69 19 0
-69 -19 0
69 11 0
-69 -11 0
120 15 0
-120 -15 0
120 38 0
-120 -38 0
100 102 0
-100 -102 0
100 83 0
-100 -83 0
87 39 0
-87 -39 0
87 13 0
-87 -13 0
27 49 0
-27 -49 0
27 136 0
-27 -136 0
27 115 0
-27 -115 0
98 45 0
-98 -45 0
98 80 0
-98 -80 0
98 54 0
-98 -54 0
101 63 0
-101 -63 0
101 102 0
-101 -102 0
135 50 0
-135 -50 0
135 15 0
-135 -15 0
135 116 0
-135 -116 0
118 31 0
-118 -31 0
118 63 0
-118 -63 0
118 17 0
-118 -17 0
48 75 0
-48 -75 0
48 116 0
-48 -116 0
48 62 0
-48 -62 0
140 134 0
-140 -134 0
140 90 0
-140 -90 0
70 126 0
-70 -126 0
70 3 0
-70 -3 0
70 134 0
-70 -134 0
85 117 0
-85 -117 0
85 21 0
-85 -21 0
85 55 0
-85 -55 0
6 38 0
-6 -38 0
6 88 0
-6 -88 0
6 104 0
-6 -104 0
40 47 0
-40 -47 0
40 91 0
-40 -91 0
40 25 0
-40 -25 0
123 139 0
-123 -139 0
123 5 0
-123 -5 0
123 111 0
-123 -111 0
32 94 0
-32 -94 0
32 77 0
-32 -77 0
32 11 0
-32 -11 0
109 65 0
-109 -65 0
109 102 0
-109 -102 0
133 77 0
-133 -77 0
133 62 0
-133 -62 0
29 104 0
-29 -104 0
29 53 0
-29 -53 0
29 30 0
-29 -30 0
18 1 0
-18 -1 0
18 5 0
-18 -5 0
103 36 0
-103 -36 0
103 93 0
-103 -93 0
103 56 0
-103 -56 0
61 122 0
-61 -122 0
61 10 0
-61 -10 0
61 34 0
-61 -34 0
131 53 0
-131 -53 0
131 45 0
-131 -45 0
131 132 0
-131 -132 0
130 92 0
-130 -92 0
130 107 0
-130 -107 0
130 94 0
-130 -94 0
2 78 0
-2 -78 0
2 86 0
-2 -86 0
2 49 0
-2 -49 0
119 41 0
-119 -41 0
119 117 0
-119 -117 0
72 21 0
-72 -21 0
72 64 0
-72 -64 0
138 129 0
-138 -129 0
138 75 0
-138 -75 0
138 121 0
-138 -121 0
37 110 0
-37 -110 0
37 9 0
-37 -9 0
37 94 0
-37 -94 0
26 93 0
-26 -93 0
26 34 0
-26 -34 0
97 58 0
-97 -58 0
97 22 0
-97 -22 0
97 107 0
-97 -107 0
67 96 0
-67 -96 0
67 110 0
-67 -110 0
137 5 0
-137 -5 0
137 68 0
-137 -68 0
137 41 0
-137 -41 0
74 80 0
-74 -80 0
74 33 0
-74 -33 0
74 58 0
-74 -58 0
108 115 0
-108 -115 0
108 42 0
-108 -42 0
108 91 0
-108 -91 0
124 59 0
-124 -59 0
124 129 0
-124 -129 0
124 132 0
-124 -132 0
43 55 0
-43 -55 0
43 66 0
-43 -66 0
43 47 0
-43 -47 0
60 30 0
-60 -30 0
60 47 0
-60 -47 0
60 9 0
-60 -9 0
106 128 0
-106 -128 0
106 59 0
-106 -59 0
99 83 0
-99 -83 0
99 55 0
-99 -55 0
14 91 0
-14 -91 0
14 128 0
-14 -128 0
14 122 0
-14 -122 0
125 42 0
-125 -42 0
125 96 0
-125 -96 0
76 34 0
-76 -34 0
76 41 0
-76 -41 0
76 46 0
-76 -46 0
71 136 0
-71 -136 0
71 15 0
-71 -15 0
71 17 0
-71 -17 0
23 17 0
-23 -17 0
23 93 0
-23 -93 0
23 121 0
-23 -121 0
4 121 0
-4 -121 0
4 1 0
-4 -1 0
4 66 0
-4 -66 0
95 46 0
-95 -46 0
95 30 0
-95 -30 0
95 65 0
-95 -65 0
52 111 0
-52 -111 0
52 59 0
-52 -59 0
52 50 0
-52 -50 0
8 20 0
-8 -20 0
8 50 0
-8 -50 0
89 22 0
-89 -22 0
89 126 0
-89 -126 0
84 10 0
-84 -10 0
84 78 0
-84 -78 0
84 110 0
-84 -110 0
28 33 0
-28 -33 0
28 1 0
-28 -1 0
28 96 0
-28 -96 0
57 107 0
-57 -107 0
57 128 0
-57 -128 0
57 36 0
-57 -36 0
127 132 0
-127 -132 0
127 83 0
-127 -83 0
127 78 0
-127 -78 0
105 3 0
-105 -3 0
105 13 0
-105 -13 0
51 116 0
-51 -116 0
51 122 0
-51 -122 0
51 134 0
-51 -134 0
81 13 0
-81 -13 0
81 111 0
-81 -111 0
79 25 0
-79 -25 0
79 63 0
-79 -63 0
79 139 0
-79 -139 0
35 19 0
-35 -19 0
35 31 0
-35 -31 0
35 45 0
-35 -45 0
73 86 0
-73 -86 0
73 126 0
-73 -126 0
73 20 0
-73 -20 0
44 62 0
-44 -62 0
44 65 0
-44 -65 0
44 39 0
-44 -39 0
12 66 0
-12 -66 0
12 22 0
-12 -22 0
12 19 0
-12 -19 0
16 64 0
-16 -64 0
16 139 0
-16 -139 0
113 68 0
-113 -68 0
113 90 0
-113 -90 0
113 38 0
-113 -38 0
82 56 0
-82 -56 0
82 21 0
-82 -21 0
82 20 0
-82 -20 0
7 11 0
-7 -11 0
7 56 0
-7 -56 0
7 42 0
-7 -42 0
112 88 0
-112 -88 0
112 64 0
-112 -64 0
112 92 0
-112 -92 0
90 53 0
-90 -53 0
105 35 0
-105 -35 0
121 3 0
-121 -3 0
26 49 0
-26 -49 0
125 77 0
-125 -77 0
123 56 0
-123 -56 0
109 49 0
-109 -49 0
37 53 0
-37 -53 0
72 66 0
-72 -66 0
140 104 0
-140 -104 0
22 86 0
-22 -86 0
137 50 0
-137 -50 0
113 10 0
-113 -10 0
90 80 0
-90 -80 0
7 88 0
-7 -88 0
74 104 0
-74 -104 0
48 130 0
-48 -130 0
8 36 0
-8 -36 0
24 53 0
-24 -53 0
35 9 0
-35 -9 0
106 34 0
-106 -34 0
114 20 0
-114 -20 0
138 63 0
-138 -63 0
55 13 0
-55 -13 0
73 44 0
-73 -44 0
70 95 0
-70 -95 0
82 117 0
-82 -117 0
137 132 0
-137 -132 0
81 3 0
-81 -3 0
51 25 0
-51 -25 0
138 76 0
-138 -76 0
72 15 0
-72 -15 0
40 89 0
-40 -89 0
1 111 0
-1 -111 0
139 13 0
-139 -13 0
81 86 0
-81 -86 0
60 90 0
-60 -90 0
31 41 0
-31 -41 0
100 2 0
-100 -2 0
83 91 0
-83 -91 0
47 64 0
-47 -64 0
125 59 0
-125 -59 0
72 106 0
-72 -106 0
108 77 0
-108 -77 0
131 110 0
-131 -110 0
101 96 0
-101 -96 0
85 73 0
-85 -73 0
69 122 0
-69 -122 0
40 122 0
-40 -122 0
118 25 0
-118 -25 0
70 39 0
-70 -39 0
123 77 0
-123 -77 0
14 76 0
-14 -76 0
45 115 0
-45 -115 0
131 59 0
-131 -59 0
81 128 0
-81 -128 0
131 80 0
-131 -80 0
82 30 0
-82 -30 0
7 54 0
-7 -54 0
23 19 0
-23 -19 0
7 33 0
-7 -33 0
57 94 0
-57 -94 0
4 3 0
-4 -3 0
98 135 0
-98 -135 0
82 93 0
-82 -93 0
129 136 0
-129 -136 0
45 92 0
-45 -92 0
67 102 0
-67 -102 0
15 59 0
-15 -59 0
9 102 0
-9 -102 0
118 130 0
-118 -130 0
63 10 0
-63 -10 0
99 139 0
-99 -139 0
70 123 0
-70 -123 0
119 74 0
-119 -74 0
106 112 0
-106 -112 0
105 20 0
-105 -20 0
101 61 0
-101 -61 0
60 39 0
-60 -39 0
52 46 0
-52 -46 0
69 50 0
-69 -50 0
120 91 0
-120 -91 0
124 126 0
-124 -126 0
96 42 0
-96 -42 0
123 18 0
-123 -18 0
76 64 0
-76 -64 0
92 42 0
-92 -42 0
87 115 0
-87 -115 0
129 62 0
-129 -62 0
105 11 0
-105 -11 0
87 82 0
-87 -82 0
67 115 0
-67 -115 0
60 136 0
-60 -136 0
133 17 0
-133 -17 0
2 115 0
-2 -115 0
137 12 0
-137 -12 0
74 75 0
-74 -75 0
103 37 0
-103 -37 0
63 132 0
-63 -132 0
26 51 0
-26 -51 0
32 35 0
-32 -35 0
43 25 0
-43 -25 0
23 55 0
-23 -55 0
109 19 0
-109 -19 0
32 138 0
-32 -138 0
97 57 0
-97 -57 0
99 82 0
-99 -82 0
24 78 0
-24 -78 0
27 22 0
-27 -22 0
28 139 0
-28 -139 0
94 21 0
-94 -21 0
110 11 0
-110 -11 0
131 122 0
-131 -122 0
28 50 0
-28 -50 0
48 5 0
-48 -5 0
140 1 0
-140 -1 0
114 119 0
-114 -119 0
15 86 0
-15 -86 0
98 129 0
-98 -129 0
1 93 0
-1 -93 0
119 33 0
-119 -33 0
109 77 0
-109 -77 0
122 66 0
-122 -66 0
74 93 0
-74 -93 0
128 136 0
-128 -136 0
44 5 0
-44 -5 0
85 47 0
-85 -47 0
69 23 0
-69 -23 0
6 83 0
-6 -83 0
43 60 0
-43 -60 0
112 129 0
-112 -129 0
2 83 0
-2 -83 0
61 105 0
-61 -105 0
99 50 0
-99 -50 0
105 129 0
-105 -129 0
80 107 0
-80 -107 0
27 97 0
-27 -97 0
6 134 0
-6 -134 0
119 31 0
-119 -31 0
76 139 0
-76 -139 0
4 102 0
-4 -102 0
29 3 0
-29 -3 0
51 111 0
-51 -111 0
103 25 0
-103 -25 0
52 10 0
-52 -10 0
125 132 0
-125 -132 0
100 19 0
-100 -19 0
54 65 0
-54 -65 0
49 88 0
-49 -88 0
71 83 0
-71 -83 0
58 121 0
-58 -121 0
43 1 0
-43 -1 0
119 127 0
-119 -127 0
69 88 0
-69 -88 0
67 104 0
-67 -104 0
32 82 0
-32 -82 0
60 89 0
-60 -89 0
95 58 0
-95 -58 0
27 35 0
-27 -35 0
83 86 0
-83 -86 0
118 123 0
-118 -123 0
48 3 0
-48 -3 0
6 58 0
-6 -58 0
93 111 0
-93 -111 0
89 79 0
-89 -79 0
60 55 0
-60 -55 0
43 33 0
-43 -33 0
140 63 0
-140 -63 0
95 90 0
-95 -90 0
124 73 0
-124 -73 0
95 16 0
-95 -16 0
61 139 0
-61 -139 0
6 89 0
-6 -89 0
117 77 0
-117 -77 0
100 46 0
-100 -46 0
43 111 0
-43 -111 0
77 116 0
-77 -116 0
100 23 0
-100 -23 0
74 63 0
-74 -63 0
134 47 0
-134 -47 0
75 22 0
-75 -22 0
67 49 0
-67 -49 0
76 116 0
-76 -116 0
59 3 0
-59 -3 0
70 88 0
-70 -88 0
130 35 0
-130 -35 0
124 80 0
-124 -80 0
95 57 0
-95 -57 0
34 132 0
-34 -132 0
136 3 0
-136 -3 0
138 49 0
-138 -49 0
24 44 0
-24 -44 0
37 11 0
-37 -11 0
10 68 0
-10 -68 0
108 90 0
-108 -90 0
103 84 0
-103 -84 0
131 126 0
-131 -126 0
80 19 0
-80 -19 0
133 59 0
-133 -59 0
120 6 0
-120 -6 0
8 63 0
-8 -63 0
54 21 0
-54 -21 0
37 124 0
-37 -124 0
4 86 0
-4 -86 0
111 66 0
-111 -66 0
18 34 0
-18 -34 0
23 96 0
-23 -96 0
14 86 0
-14 -86 0
38 136 0
-38 -136 0
32 125 0
-32 -125 0
99 129 0
-99 -129 0
87 124 0
-87 -124 0
94 64 0
-94 -64 0
95 83 0
-95 -83 0
72 75 0
-72 -75 0
26 86 0
-26 -86 0
130 73 0
-130 -73 0
112 22 0
-112 -22 0
133 5 0
-133 -5 0
28 121 0
-28 -121 0
53 110 0
-53 -110 0
108 96 0
-108 -96 0
35 82 0
-35 -82 0
60 139 0
-60 -139 0
50 59 0
-50 -59 0
25 64 0
-25 -64 0
4 128 0
-4 -128 0
24 103 0
-24 -103 0
93 88 0
-93 -88 0
106 3 0
-106 -3 0
114 17 0
-114 -17 0
127 64 0
-127 -64 0
138 90 0
-138 -90 0
29 42 0
-29 -42 0
37 49 0
-37 -49 0
124 75 0
-124 -75 0
108 128 0
-108 -128 0
139 25 0
-139 -25 0
94 3 0
-94 -3 0
110 42 0
-110 -42 0
133 31 0
-133 -31 0
23 91 0
-23 -91 0
114 19 0
-114 -19 0
78 10 0
-78 -10 0
89 93 0
-89 -93 0
13 19 0
-13 -19 0
24 130 0
-24 -130 0
138 112 0
-138 -112 0
97 111 0
-97 -111 0
134 1 0
-134 -1 0
60 49 0
-60 -49 0
95 62 0
-95 -62 0
137 43 0
-137 -43 0
103 134 0
-103 -134 0
12 9 0
-12 -9 0
29 62 0
-29 -62 0
26 35 0
-26 -35 0
109 5 0
-109 -5 0
35 12 0
-35 -12 0
6 57 0
-6 -57 0
72 3 0
-72 -3 0
87 105 0
-87 -105 0
73 58 0
-73 -58 0
140 122 0
-140 -122 0
137 82 0
-137 -82 0
110 5 0
-110 -5 0
4 122 0
-4 -122 0
26 59 0
-26 -59 0
2 16 0
-2 -16 0
14 93 0
-14 -93 0
117 136 0
-117 -136 0
131 11 0
-131 -11 0
119 82 0
-119 -82 0
137 25 0
-137 -25 0
127 13 0
-127 -13 0
84 77 0
-84 -77 0
118 133 0
-118 -133 0
125 53 0
-125 -53 0
81 90 0
-81 -90 0
135 110 0
-135 -110 0
6 14 0
-6 -14 0
82 115 0
-82 -115 0
71 91 0
-71 -91 0
76 80 0
-76 -80 0
27 44 0
-27 -44 0
77 19 0
-77 -19 0
7 122 0
-7 -122 0
135 97 0
-135 -97 0
32 55 0
-32 -55 0
115 64 0
-115 -64 0
42 17 0
-42 -17 0
40 42 0
-40 -42 0
118 55 0
-118 -55 0
12 107 0
-12 -107 0
77 62 0
-77 -62 0
48 90 0
-48 -90 0
113 102 0
-113 -102 0
137 17 0
-137 -17 0
47 34 0
-47 -34 0
87 47 0
-87 -47 0
104 56 0
-104 -56 0
45 1 0
-45 -1 0
85 33 0
-85 -33 0
13 88 0
-13 -88 0
6 54 0
-6 -54 0
43 89 0
-43 -89 0
106 110 0
-106 -110 0
101 15 0
-101 -15 0
39 66 0
-39 -66 0
95 107 0
-95 -107 0
71 21 0
-71 -21 0
48 92 0
-48 -92 0
35 15 0
-35 -15 0
120 48 0
-120 -48 0
43 139 0
-43 -139 0
2 37 0
-2 -37 0
104 41 0
-104 -41 0
60 92 0
-60 -92 0
18 68 0
-18 -68 0
26 5 0
-26 -5 0
17 10 0
-17 -10 0
67 82 0
-67 -82 0
134 17 0
-134 -17 0
27 89 0
-27 -89 0
79 42 0
-79 -42 0
63 36 0
-63 -36 0
130 76 0
-130 -76 0
103 94 0
-103 -94 0
118 34 0
-118 -34 0
67 117 0
-67 -117 0
95 94 0
-95 -94 0
37 81 0
-37 -81 0
6 35 0
-6 -35 0
85 8 0
-85 -8 0
32 65 0
-32 -65 0
67 30 0
-67 -30 0
72 5 0
-72 -5 0
79 11 0
-79 -11 0
87 11 0
-87 -11 0
50 88 0
-50 -88 0
113 107 0
-113 -107 0
12 38 0
-12 -38 0
131 3 0
-131 -3 0
23 112 0
-23 -112 0
40 108 0
-40 -108 0
135 122 0
-135 -122 0
133 138 0
-133 -138 0
79 86 0
-79 -86 0
23 58 0
-23 -58 0
101 109 0
-101 -109 0
76 1 0
-76 -1 0
138 82 0
-138 -82 0
26 42 0
-26 -42 0
113 63 0
-113 -63 0
71 33 0
-71 -33 0
77 25 0
-77 -25 0
109 31 0
-109 -31 0
125 105 0
-125 -105 0
132 11 0
-132 -11 0
74 132 0
-74 -132 0
100 140 0
-100 -140 0
40 22 0
-40 -22 0
29 106 0
-29 -106 0
68 56 0
-68 -56 0
131 76 0
-131 -76 0
125 34 0
-125 -34 0
120 9 0
-120 -9 0
55 11 0
-55 -11 0
100 52 0
-100 -52 0
36 53 0
-36 -53 0
85 105 0
-85 -105 0
54 53 0
-54 -53 0
87 23 0
-87 -23 0
52 9 0
-52 -9 0
133 7 0
-133 -7 0
12 21 0
-12 -21 0
5 25 0
-5 -25 0
99 96 0
-99 -96 0
76 4 0
-76 -4 0
90 11 0
-90 -11 0
50 65 0
-50 -65 0
122 88 0
-122 -88 0
43 15 0
-43 -15 0
14 33 0
-14 -33 0
135 66 0
-135 -66 0
114 70 0
-114 -70 0
48 44 0
-48 -44 0
92 78 0
-92 -78 0
108 31 0
-108 -31 0
41 111 0
-41 -111 0
48 46 0
-48 -46 0
110 55 0
-110 -55 0
85 1 0
-85 -1 0
65 115 0
-65 -115 0
70 34 0
-70 -34 0
7 41 0
-7 -41 0
31 5 0
-31 -5 0
95 122 0
-95 -122 0
24 28 0
-24 -28 0
123 9 0
-123 -9 0
26 57 0
-26 -57 0
70 49 0
-70 -49 0
119 94 0
-119 -94 0
109 92 0
-109 -92 0
32 59 0
-32 -59 0
14 35 0
-14 -35 0
51 53 0
-51 -53 0
4 117 0
-4 -117 0
134 42 0
-134 -42 0
90 92 0
-90 -92 0
17 62 0
-17 -62 0
124 25 0
-124 -25 0
100 44 0
-100 -44 0
113 132 0
-113 -132 0
104 25 0
-104 -25 0
115 3 0
-115 -3 0
32 99 0
-32 -99 0
119 30 0
-119 -30 0
46 13 0
-46 -13 0
2 15 0
-2 -15 0
82 132 0
-82 -132 0
128 17 0
-128 -17 0
131 86 0
-131 -86 0
113 1 0
-113 -1 0
90 20 0
-90 -20 0
124 41 0
-124 -41 0
9 93 0
-9 -93 0
137 19 0
-137 -19 0
61 121 0
-61 -121 0
97 13 0
-97 -13 0
130 47 0
-130 -47 0
98 41 0
-98 -41 0
127 36 0
-127 -36 0
107 3 0
-107 -3 0
2 60 0
-2 -60 0
134 78 0
-134 -78 0
98 83 0
-98 -83 0
8 129 0
-8 -129 0
67 59 0
-67 -59 0
102 92 0
-102 -92 0
100 65 0
-100 -65 0
