FourierSAT_Github_AIJ/res/fs_1core/maxcut-140-630-0.7-14.cnf.txt
o 190
o 180
